p cnf 126 485
-1 -2 0
-3 -4 0
-5 -6 0
1 3 5 0
2 4 6 0
7 8 9 10 11 0
-7 -8 0
-7 -9 0
-7 -10 0
-7 -11 0
-8 -9 0
-8 -10 0
-8 -11 0
-9 -10 0
-9 -11 0
-10 -11 0
12 13 14 15 16 0
-12 -13 0
-12 -14 0
-12 -15 0
-12 -16 0
-13 -14 0
-13 -15 0
-13 -16 0
-14 -15 0
-14 -16 0
-15 -16 0
17 18 19 20 21 0
-17 -18 0
-17 -19 0
-17 -20 0
-17 -21 0
-18 -19 0
-18 -20 0
-18 -21 0
-19 -20 0
-19 -21 0
-20 -21 0
22 23 24 25 26 0
-22 -23 0
-22 -24 0
-22 -25 0
-22 -26 0
-23 -24 0
-23 -25 0
-23 -26 0
-24 -25 0
-24 -26 0
-25 -26 0
7 0
-8 0
-9 0
-10 0
-11 0
-7 1 12 0
-7 -1 13 0
-8 1 13 0
-8 -1 14 0
-9 1 14 0
-9 -1 15 0
-10 1 15 0
-10 -1 16 0
-11 1 16 0
-11 -1 12 0
-12 3 17 0
-12 -3 21 0
-13 3 18 0
-13 -3 17 0
-14 3 19 0
-14 -3 18 0
-15 3 20 0
-15 -3 19 0
-16 3 21 0
-16 -3 20 0
-17 5 22 0
-17 -5 23 0
-18 5 23 0
-18 -5 24 0
-19 5 24 0
-19 -5 25 0
-20 5 25 0
-20 -5 26 0
-21 5 26 0
-21 -5 22 0
22 0
27 28 29 30 31 0
-27 -28 0
-27 -29 0
-27 -30 0
-27 -31 0
-28 -29 0
-28 -30 0
-28 -31 0
-29 -30 0
-29 -31 0
-30 -31 0
32 33 34 35 36 0
-32 -33 0
-32 -34 0
-32 -35 0
-32 -36 0
-33 -34 0
-33 -35 0
-33 -36 0
-34 -35 0
-34 -36 0
-35 -36 0
37 38 39 40 41 0
-37 -38 0
-37 -39 0
-37 -40 0
-37 -41 0
-38 -39 0
-38 -40 0
-38 -41 0
-39 -40 0
-39 -41 0
-40 -41 0
42 43 44 45 46 0
-42 -43 0
-42 -44 0
-42 -45 0
-42 -46 0
-43 -44 0
-43 -45 0
-43 -46 0
-44 -45 0
-44 -46 0
-45 -46 0
27 0
-28 0
-29 0
-30 0
-31 0
-27 1 32 0
-27 -1 32 0
-28 1 33 0
-28 -1 33 0
-29 1 34 0
-29 -1 34 0
-30 1 35 0
-30 -1 35 0
-31 1 36 0
-31 -1 36 0
-32 3 37 0
-32 -3 37 0
-33 3 38 0
-33 -3 38 0
-34 3 39 0
-34 -3 39 0
-35 3 40 0
-35 -3 40 0
-36 3 41 0
-36 -3 41 0
-37 5 42 0
-37 -5 42 0
-38 5 43 0
-38 -5 43 0
-39 5 44 0
-39 -5 44 0
-40 5 45 0
-40 -5 45 0
-41 5 46 0
-41 -5 46 0
42 0
47 48 49 50 51 0
-47 -48 0
-47 -49 0
-47 -50 0
-47 -51 0
-48 -49 0
-48 -50 0
-48 -51 0
-49 -50 0
-49 -51 0
-50 -51 0
52 53 54 55 56 0
-52 -53 0
-52 -54 0
-52 -55 0
-52 -56 0
-53 -54 0
-53 -55 0
-53 -56 0
-54 -55 0
-54 -56 0
-55 -56 0
57 58 59 60 61 0
-57 -58 0
-57 -59 0
-57 -60 0
-57 -61 0
-58 -59 0
-58 -60 0
-58 -61 0
-59 -60 0
-59 -61 0
-60 -61 0
62 63 64 65 66 0
-62 -63 0
-62 -64 0
-62 -65 0
-62 -66 0
-63 -64 0
-63 -65 0
-63 -66 0
-64 -65 0
-64 -66 0
-65 -66 0
47 0
-48 0
-49 0
-50 0
-51 0
-47 1 52 0
-47 -1 52 0
-48 1 53 0
-48 -1 53 0
-49 1 54 0
-49 -1 54 0
-50 1 55 0
-50 -1 55 0
-51 1 56 0
-51 -1 56 0
-52 3 57 0
-52 -3 57 0
-53 3 58 0
-53 -3 58 0
-54 3 59 0
-54 -3 59 0
-55 3 60 0
-55 -3 60 0
-56 3 61 0
-56 -3 61 0
-57 5 62 0
-57 -5 62 0
-58 5 63 0
-58 -5 63 0
-59 5 64 0
-59 -5 64 0
-60 5 65 0
-60 -5 65 0
-61 5 66 0
-61 -5 66 0
62 0
67 68 69 70 71 0
-67 -68 0
-67 -69 0
-67 -70 0
-67 -71 0
-68 -69 0
-68 -70 0
-68 -71 0
-69 -70 0
-69 -71 0
-70 -71 0
72 73 74 75 76 0
-72 -73 0
-72 -74 0
-72 -75 0
-72 -76 0
-73 -74 0
-73 -75 0
-73 -76 0
-74 -75 0
-74 -76 0
-75 -76 0
77 78 79 80 81 0
-77 -78 0
-77 -79 0
-77 -80 0
-77 -81 0
-78 -79 0
-78 -80 0
-78 -81 0
-79 -80 0
-79 -81 0
-80 -81 0
82 83 84 85 86 0
-82 -83 0
-82 -84 0
-82 -85 0
-82 -86 0
-83 -84 0
-83 -85 0
-83 -86 0
-84 -85 0
-84 -86 0
-85 -86 0
67 0
-68 0
-69 0
-70 0
-71 0
-67 2 72 0
-67 -2 73 0
-68 2 73 0
-68 -2 74 0
-69 2 74 0
-69 -2 75 0
-70 2 75 0
-70 -2 76 0
-71 2 76 0
-71 -2 72 0
-72 4 77 0
-72 -4 81 0
-73 4 78 0
-73 -4 77 0
-74 4 79 0
-74 -4 78 0
-75 4 80 0
-75 -4 79 0
-76 4 81 0
-76 -4 80 0
-77 6 82 0
-77 -6 83 0
-78 6 83 0
-78 -6 84 0
-79 6 84 0
-79 -6 85 0
-80 6 85 0
-80 -6 86 0
-81 6 86 0
-81 -6 82 0
82 0
87 88 89 90 91 0
-87 -88 0
-87 -89 0
-87 -90 0
-87 -91 0
-88 -89 0
-88 -90 0
-88 -91 0
-89 -90 0
-89 -91 0
-90 -91 0
92 93 94 95 96 0
-92 -93 0
-92 -94 0
-92 -95 0
-92 -96 0
-93 -94 0
-93 -95 0
-93 -96 0
-94 -95 0
-94 -96 0
-95 -96 0
97 98 99 100 101 0
-97 -98 0
-97 -99 0
-97 -100 0
-97 -101 0
-98 -99 0
-98 -100 0
-98 -101 0
-99 -100 0
-99 -101 0
-100 -101 0
102 103 104 105 106 0
-102 -103 0
-102 -104 0
-102 -105 0
-102 -106 0
-103 -104 0
-103 -105 0
-103 -106 0
-104 -105 0
-104 -106 0
-105 -106 0
87 0
-88 0
-89 0
-90 0
-91 0
-87 2 92 0
-87 -2 92 0
-88 2 93 0
-88 -2 93 0
-89 2 94 0
-89 -2 94 0
-90 2 95 0
-90 -2 95 0
-91 2 96 0
-91 -2 96 0
-92 4 97 0
-92 -4 97 0
-93 4 98 0
-93 -4 98 0
-94 4 99 0
-94 -4 99 0
-95 4 100 0
-95 -4 100 0
-96 4 101 0
-96 -4 101 0
-97 6 102 0
-97 -6 102 0
-98 6 103 0
-98 -6 103 0
-99 6 104 0
-99 -6 104 0
-100 6 105 0
-100 -6 105 0
-101 6 106 0
-101 -6 106 0
102 0
107 108 109 110 111 0
-107 -108 0
-107 -109 0
-107 -110 0
-107 -111 0
-108 -109 0
-108 -110 0
-108 -111 0
-109 -110 0
-109 -111 0
-110 -111 0
112 113 114 115 116 0
-112 -113 0
-112 -114 0
-112 -115 0
-112 -116 0
-113 -114 0
-113 -115 0
-113 -116 0
-114 -115 0
-114 -116 0
-115 -116 0
117 118 119 120 121 0
-117 -118 0
-117 -119 0
-117 -120 0
-117 -121 0
-118 -119 0
-118 -120 0
-118 -121 0
-119 -120 0
-119 -121 0
-120 -121 0
122 123 124 125 126 0
-122 -123 0
-122 -124 0
-122 -125 0
-122 -126 0
-123 -124 0
-123 -125 0
-123 -126 0
-124 -125 0
-124 -126 0
-125 -126 0
107 0
-108 0
-109 0
-110 0
-111 0
-107 2 112 0
-107 -2 112 0
-108 2 113 0
-108 -2 113 0
-109 2 114 0
-109 -2 114 0
-110 2 115 0
-110 -2 115 0
-111 2 116 0
-111 -2 116 0
-112 4 117 0
-112 -4 117 0
-113 4 118 0
-113 -4 118 0
-114 4 119 0
-114 -4 119 0
-115 4 120 0
-115 -4 120 0
-116 4 121 0
-116 -4 121 0
-117 6 122 0
-117 -6 122 0
-118 6 123 0
-118 -6 123 0
-119 6 124 0
-119 -6 124 0
-120 6 125 0
-120 -6 125 0
-121 6 126 0
-121 -6 126 0
122 0
